(set-info :smt-lib-version 2.6)
(set-logic QF_BV)
(set-info :source | Generated by Roberto Bruttomesso |)
(set-info :category "crafted")
(set-info :status unsat)
(declare-fun reset_0 () Bool)
(declare-fun q1_0 () (_ BitVec 15))
(declare-fun q2_0 () (_ BitVec 15))
(declare-fun q3_0 () (_ BitVec 15))
(declare-fun q4_0 () (_ BitVec 15))
(declare-fun reset_1 () Bool)
(declare-fun q1_1 () (_ BitVec 15))
(declare-fun q2_1 () (_ BitVec 15))
(declare-fun q3_1 () (_ BitVec 15))
(declare-fun q4_1 () (_ BitVec 15))
(declare-fun reset_2 () Bool)
(declare-fun q1_2 () (_ BitVec 15))
(declare-fun q2_2 () (_ BitVec 15))
(declare-fun q3_2 () (_ BitVec 15))
(declare-fun q4_2 () (_ BitVec 15))
(declare-fun reset_3 () Bool)
(declare-fun q1_3 () (_ BitVec 15))
(declare-fun q2_3 () (_ BitVec 15))
(declare-fun q3_3 () (_ BitVec 15))
(declare-fun q4_3 () (_ BitVec 15))
(declare-fun reset_4 () Bool)
(declare-fun q1_4 () (_ BitVec 15))
(declare-fun q2_4 () (_ BitVec 15))
(declare-fun q3_4 () (_ BitVec 15))
(declare-fun q4_4 () (_ BitVec 15))
(declare-fun reset_5 () Bool)
(declare-fun q1_5 () (_ BitVec 15))
(declare-fun q2_5 () (_ BitVec 15))
(declare-fun q3_5 () (_ BitVec 15))
(declare-fun q4_5 () (_ BitVec 15))
(declare-fun reset_6 () Bool)
(declare-fun q1_6 () (_ BitVec 15))
(declare-fun q2_6 () (_ BitVec 15))
(declare-fun q3_6 () (_ BitVec 15))
(declare-fun q4_6 () (_ BitVec 15))
(declare-fun reset_7 () Bool)
(declare-fun q1_7 () (_ BitVec 15))
(declare-fun q2_7 () (_ BitVec 15))
(declare-fun q3_7 () (_ BitVec 15))
(declare-fun q4_7 () (_ BitVec 15))
(declare-fun reset_8 () Bool)
(declare-fun q1_8 () (_ BitVec 15))
(declare-fun q2_8 () (_ BitVec 15))
(declare-fun q3_8 () (_ BitVec 15))
(declare-fun q4_8 () (_ BitVec 15))
(declare-fun reset_9 () Bool)
(declare-fun q1_9 () (_ BitVec 15))
(declare-fun q2_9 () (_ BitVec 15))
(declare-fun q3_9 () (_ BitVec 15))
(declare-fun q4_9 () (_ BitVec 15))
(declare-fun reset_10 () Bool)
(declare-fun q1_10 () (_ BitVec 15))
(declare-fun q2_10 () (_ BitVec 15))
(declare-fun q3_10 () (_ BitVec 15))
(declare-fun q4_10 () (_ BitVec 15))
(declare-fun reset_11 () Bool)
(declare-fun q1_11 () (_ BitVec 15))
(declare-fun q2_11 () (_ BitVec 15))
(declare-fun q3_11 () (_ BitVec 15))
(declare-fun q4_11 () (_ BitVec 15))
(declare-fun reset_12 () Bool)
(declare-fun q1_12 () (_ BitVec 15))
(declare-fun q2_12 () (_ BitVec 15))
(declare-fun q3_12 () (_ BitVec 15))
(declare-fun q4_12 () (_ BitVec 15))
(declare-fun reset_13 () Bool)
(declare-fun q1_13 () (_ BitVec 15))
(declare-fun q2_13 () (_ BitVec 15))
(declare-fun q3_13 () (_ BitVec 15))
(declare-fun q4_13 () (_ BitVec 15))
(declare-fun reset_14 () Bool)
(declare-fun q1_14 () (_ BitVec 15))
(declare-fun q2_14 () (_ BitVec 15))
(declare-fun q3_14 () (_ BitVec 15))
(declare-fun q4_14 () (_ BitVec 15))
(declare-fun reset_15 () Bool)
(declare-fun q1_15 () (_ BitVec 15))
(declare-fun q2_15 () (_ BitVec 15))
(declare-fun q3_15 () (_ BitVec 15))
(declare-fun q4_15 () (_ BitVec 15))
(declare-fun reset_16 () Bool)
(declare-fun q1_16 () (_ BitVec 15))
(declare-fun q2_16 () (_ BitVec 15))
(declare-fun q3_16 () (_ BitVec 15))
(declare-fun q4_16 () (_ BitVec 15))
(assert (and (ite reset_0 (= q1_1 (_ bv0 15)) (= q1_1 (concat ((_ extract 13 0) q1_0) (bvxor ((_ extract 14 14) q1_0) ((_ extract 13 13) q1_0))))) (ite reset_1 (= q1_2 (_ bv0 15)) (= q1_2 (concat ((_ extract 13 0) q1_1) (bvxor ((_ extract 14 14) q1_1) ((_ extract 13 13) q1_1))))) (ite reset_2 (= q1_3 (_ bv0 15)) (= q1_3 (concat ((_ extract 13 0) q1_2) (bvxor ((_ extract 14 14) q1_2) ((_ extract 13 13) q1_2))))) (ite reset_3 (= q1_4 (_ bv0 15)) (= q1_4 (concat ((_ extract 13 0) q1_3) (bvxor ((_ extract 14 14) q1_3) ((_ extract 13 13) q1_3))))) (ite reset_4 (= q1_5 (_ bv0 15)) (= q1_5 (concat ((_ extract 13 0) q1_4) (bvxor ((_ extract 14 14) q1_4) ((_ extract 13 13) q1_4))))) (ite reset_5 (= q1_6 (_ bv0 15)) (= q1_6 (concat ((_ extract 13 0) q1_5) (bvxor ((_ extract 14 14) q1_5) ((_ extract 13 13) q1_5))))) (ite reset_6 (= q1_7 (_ bv0 15)) (= q1_7 (concat ((_ extract 13 0) q1_6) (bvxor ((_ extract 14 14) q1_6) ((_ extract 13 13) q1_6))))) (ite reset_7 (= q1_8 (_ bv0 15)) (= q1_8 (concat ((_ extract 13 0) q1_7) (bvxor ((_ extract 14 14) q1_7) ((_ extract 13 13) q1_7))))) (ite reset_8 (= q1_9 (_ bv0 15)) (= q1_9 (concat ((_ extract 13 0) q1_8) (bvxor ((_ extract 14 14) q1_8) ((_ extract 13 13) q1_8))))) (ite reset_9 (= q1_10 (_ bv0 15)) (= q1_10 (concat ((_ extract 13 0) q1_9) (bvxor ((_ extract 14 14) q1_9) ((_ extract 13 13) q1_9))))) (ite reset_10 (= q1_11 (_ bv0 15)) (= q1_11 (concat ((_ extract 13 0) q1_10) (bvxor ((_ extract 14 14) q1_10) ((_ extract 13 13) q1_10))))) (ite reset_11 (= q1_12 (_ bv0 15)) (= q1_12 (concat ((_ extract 13 0) q1_11) (bvxor ((_ extract 14 14) q1_11) ((_ extract 13 13) q1_11))))) (ite reset_12 (= q1_13 (_ bv0 15)) (= q1_13 (concat ((_ extract 13 0) q1_12) (bvxor ((_ extract 14 14) q1_12) ((_ extract 13 13) q1_12))))) (ite reset_13 (= q1_14 (_ bv0 15)) (= q1_14 (concat ((_ extract 13 0) q1_13) (bvxor ((_ extract 14 14) q1_13) ((_ extract 13 13) q1_13))))) (ite reset_14 (= q1_15 (_ bv0 15)) (= q1_15 (concat ((_ extract 13 0) q1_14) (bvxor ((_ extract 14 14) q1_14) ((_ extract 13 13) q1_14))))) (ite reset_15 (= q1_16 (_ bv0 15)) (= q1_16 (concat ((_ extract 13 0) q1_15) (bvxor ((_ extract 14 14) q1_15) ((_ extract 13 13) q1_15))))) (ite reset_0 (= q2_1 (_ bv0 15)) (= q2_1 (concat ((_ extract 13 0) q2_0) (bvxor ((_ extract 14 14) q2_0) ((_ extract 13 13) q2_0))))) (ite reset_1 (= q2_2 (_ bv0 15)) (= q2_2 (concat ((_ extract 13 0) q2_1) (bvxor ((_ extract 14 14) q2_1) ((_ extract 13 13) q2_1))))) (ite reset_2 (= q2_3 (_ bv0 15)) (= q2_3 (concat ((_ extract 13 0) q2_2) (bvxor ((_ extract 14 14) q2_2) ((_ extract 13 13) q2_2))))) (ite reset_3 (= q2_4 (_ bv0 15)) (= q2_4 (concat ((_ extract 13 0) q2_3) (bvxor ((_ extract 14 14) q2_3) ((_ extract 13 13) q2_3))))) (ite reset_4 (= q2_5 (_ bv0 15)) (= q2_5 (concat ((_ extract 13 0) q2_4) (bvxor ((_ extract 14 14) q2_4) ((_ extract 13 13) q2_4))))) (ite reset_5 (= q2_6 (_ bv0 15)) (= q2_6 (concat ((_ extract 13 0) q2_5) (bvxor ((_ extract 14 14) q2_5) ((_ extract 13 13) q2_5))))) (ite reset_6 (= q2_7 (_ bv0 15)) (= q2_7 (concat ((_ extract 13 0) q2_6) (bvxor ((_ extract 14 14) q2_6) ((_ extract 13 13) q2_6))))) (ite reset_7 (= q2_8 (_ bv0 15)) (= q2_8 (concat ((_ extract 13 0) q2_7) (bvxor ((_ extract 14 14) q2_7) ((_ extract 13 13) q2_7))))) (ite reset_8 (= q2_9 (_ bv0 15)) (= q2_9 (concat ((_ extract 13 0) q2_8) (bvxor ((_ extract 14 14) q2_8) ((_ extract 13 13) q2_8))))) (ite reset_9 (= q2_10 (_ bv0 15)) (= q2_10 (concat ((_ extract 13 0) q2_9) (bvxor ((_ extract 14 14) q2_9) ((_ extract 13 13) q2_9))))) (ite reset_10 (= q2_11 (_ bv0 15)) (= q2_11 (concat ((_ extract 13 0) q2_10) (bvxor ((_ extract 14 14) q2_10) ((_ extract 13 13) q2_10))))) (ite reset_11 (= q2_12 (_ bv0 15)) (= q2_12 (concat ((_ extract 13 0) q2_11) (bvxor ((_ extract 14 14) q2_11) ((_ extract 13 13) q2_11))))) (ite reset_12 (= q2_13 (_ bv0 15)) (= q2_13 (concat ((_ extract 13 0) q2_12) (bvxor ((_ extract 14 14) q2_12) ((_ extract 13 13) q2_12))))) (ite reset_13 (= q2_14 (_ bv0 15)) (= q2_14 (concat ((_ extract 13 0) q2_13) (bvxor ((_ extract 14 14) q2_13) ((_ extract 13 13) q2_13))))) (ite reset_14 (= q2_15 (_ bv0 15)) (= q2_15 (concat ((_ extract 13 0) q2_14) (bvxor ((_ extract 14 14) q2_14) ((_ extract 13 13) q2_14))))) (ite reset_15 (= q2_16 (_ bv0 15)) (= q2_16 (concat ((_ extract 13 0) q2_15) (bvxor ((_ extract 14 14) q2_15) ((_ extract 13 13) q2_15))))) (ite reset_0 (= q3_1 (_ bv0 15)) (= q3_1 (concat ((_ extract 13 0) q3_0) (bvxor ((_ extract 14 14) q3_0) ((_ extract 13 13) q3_0))))) (ite reset_1 (= q3_2 (_ bv0 15)) (= q3_2 (concat ((_ extract 13 0) q3_1) (bvxor ((_ extract 14 14) q3_1) ((_ extract 13 13) q3_1))))) (ite reset_2 (= q3_3 (_ bv0 15)) (= q3_3 (concat ((_ extract 13 0) q3_2) (bvxor ((_ extract 14 14) q3_2) ((_ extract 13 13) q3_2))))) (ite reset_3 (= q3_4 (_ bv0 15)) (= q3_4 (concat ((_ extract 13 0) q3_3) (bvxor ((_ extract 14 14) q3_3) ((_ extract 13 13) q3_3))))) (ite reset_4 (= q3_5 (_ bv0 15)) (= q3_5 (concat ((_ extract 13 0) q3_4) (bvxor ((_ extract 14 14) q3_4) ((_ extract 13 13) q3_4))))) (ite reset_5 (= q3_6 (_ bv0 15)) (= q3_6 (concat ((_ extract 13 0) q3_5) (bvxor ((_ extract 14 14) q3_5) ((_ extract 13 13) q3_5))))) (ite reset_6 (= q3_7 (_ bv0 15)) (= q3_7 (concat ((_ extract 13 0) q3_6) (bvxor ((_ extract 14 14) q3_6) ((_ extract 13 13) q3_6))))) (ite reset_7 (= q3_8 (_ bv0 15)) (= q3_8 (concat ((_ extract 13 0) q3_7) (bvxor ((_ extract 14 14) q3_7) ((_ extract 13 13) q3_7))))) (ite reset_8 (= q3_9 (_ bv0 15)) (= q3_9 (concat ((_ extract 13 0) q3_8) (bvxor ((_ extract 14 14) q3_8) ((_ extract 13 13) q3_8))))) (ite reset_9 (= q3_10 (_ bv0 15)) (= q3_10 (concat ((_ extract 13 0) q3_9) (bvxor ((_ extract 14 14) q3_9) ((_ extract 13 13) q3_9))))) (ite reset_10 (= q3_11 (_ bv0 15)) (= q3_11 (concat ((_ extract 13 0) q3_10) (bvxor ((_ extract 14 14) q3_10) ((_ extract 13 13) q3_10))))) (ite reset_11 (= q3_12 (_ bv0 15)) (= q3_12 (concat ((_ extract 13 0) q3_11) (bvxor ((_ extract 14 14) q3_11) ((_ extract 13 13) q3_11))))) (ite reset_12 (= q3_13 (_ bv0 15)) (= q3_13 (concat ((_ extract 13 0) q3_12) (bvxor ((_ extract 14 14) q3_12) ((_ extract 13 13) q3_12))))) (ite reset_13 (= q3_14 (_ bv0 15)) (= q3_14 (concat ((_ extract 13 0) q3_13) (bvxor ((_ extract 14 14) q3_13) ((_ extract 13 13) q3_13))))) (ite reset_14 (= q3_15 (_ bv0 15)) (= q3_15 (concat ((_ extract 13 0) q3_14) (bvxor ((_ extract 14 14) q3_14) ((_ extract 13 13) q3_14))))) (ite reset_15 (= q3_16 (_ bv0 15)) (= q3_16 (concat ((_ extract 13 0) q3_15) (bvxor ((_ extract 14 14) q3_15) ((_ extract 13 13) q3_15))))) (ite reset_0 (= q4_1 (_ bv0 15)) (= q4_1 (concat ((_ extract 13 0) q4_0) (bvxor ((_ extract 14 14) q4_0) ((_ extract 13 13) q4_0))))) (ite reset_1 (= q4_2 (_ bv0 15)) (= q4_2 (concat ((_ extract 13 0) q4_1) (bvxor ((_ extract 14 14) q4_1) ((_ extract 13 13) q4_1))))) (ite reset_2 (= q4_3 (_ bv0 15)) (= q4_3 (concat ((_ extract 13 0) q4_2) (bvxor ((_ extract 14 14) q4_2) ((_ extract 13 13) q4_2))))) (ite reset_3 (= q4_4 (_ bv0 15)) (= q4_4 (concat ((_ extract 13 0) q4_3) (bvxor ((_ extract 14 14) q4_3) ((_ extract 13 13) q4_3))))) (ite reset_4 (= q4_5 (_ bv0 15)) (= q4_5 (concat ((_ extract 13 0) q4_4) (bvxor ((_ extract 14 14) q4_4) ((_ extract 13 13) q4_4))))) (ite reset_5 (= q4_6 (_ bv0 15)) (= q4_6 (concat ((_ extract 13 0) q4_5) (bvxor ((_ extract 14 14) q4_5) ((_ extract 13 13) q4_5))))) (ite reset_6 (= q4_7 (_ bv0 15)) (= q4_7 (concat ((_ extract 13 0) q4_6) (bvxor ((_ extract 14 14) q4_6) ((_ extract 13 13) q4_6))))) (ite reset_7 (= q4_8 (_ bv0 15)) (= q4_8 (concat ((_ extract 13 0) q4_7) (bvxor ((_ extract 14 14) q4_7) ((_ extract 13 13) q4_7))))) (ite reset_8 (= q4_9 (_ bv0 15)) (= q4_9 (concat ((_ extract 13 0) q4_8) (bvxor ((_ extract 14 14) q4_8) ((_ extract 13 13) q4_8))))) (ite reset_9 (= q4_10 (_ bv0 15)) (= q4_10 (concat ((_ extract 13 0) q4_9) (bvxor ((_ extract 14 14) q4_9) ((_ extract 13 13) q4_9))))) (ite reset_10 (= q4_11 (_ bv0 15)) (= q4_11 (concat ((_ extract 13 0) q4_10) (bvxor ((_ extract 14 14) q4_10) ((_ extract 13 13) q4_10))))) (ite reset_11 (= q4_12 (_ bv0 15)) (= q4_12 (concat ((_ extract 13 0) q4_11) (bvxor ((_ extract 14 14) q4_11) ((_ extract 13 13) q4_11))))) (ite reset_12 (= q4_13 (_ bv0 15)) (= q4_13 (concat ((_ extract 13 0) q4_12) (bvxor ((_ extract 14 14) q4_12) ((_ extract 13 13) q4_12))))) (ite reset_13 (= q4_14 (_ bv0 15)) (= q4_14 (concat ((_ extract 13 0) q4_13) (bvxor ((_ extract 14 14) q4_13) ((_ extract 13 13) q4_13))))) (ite reset_14 (= q4_15 (_ bv0 15)) (= q4_15 (concat ((_ extract 13 0) q4_14) (bvxor ((_ extract 14 14) q4_14) ((_ extract 13 13) q4_14))))) (ite reset_15 (= q4_16 (_ bv0 15)) (= q4_16 (concat ((_ extract 13 0) q4_15) (bvxor ((_ extract 14 14) q4_15) ((_ extract 13 13) q4_15))))) (not (= q1_0 q2_0)) (not (= q1_0 q3_0)) (not (= q1_0 q4_0)) (not (= q2_0 q3_0)) (not (= q2_0 q4_0)) (not (= q3_0 q4_0)) (not (= q1_0 (_ bv0 15))) (not (= q2_0 (_ bv0 15))) (not (= q3_0 (_ bv0 15))) (not (= q4_0 (_ bv0 15))) (= (or (= q1_16 q2_16) (= q1_16 q3_16) (= q1_16 q4_16) (= q2_16 q3_16) (= q2_16 q4_16) (= q3_16 q4_16)) (and (not reset_0) (not reset_1) (not reset_2) (not reset_3) (not reset_4) (not reset_5) (not reset_6) (not reset_7) (not reset_8) (not reset_9) (not reset_10) (not reset_11) (not reset_12) (not reset_13) (not reset_14) (not reset_15)))))
(check-sat)
(exit)
